
List of user-set options:

                                    Name   Value                used
                           compl_inf_tol = 1                     yes
                         constr_viol_tol = 1                     yes
                            dual_inf_tol = 1000                  yes
                           linear_solver = ma97                  yes
                              ma86_small = 1e-30                  no
                                  ma86_u = 0.0001                 no
                              ma97_order = best                  yes
                              ma97_small = 1e-30                 yes
                            ma97_switch1 = at_start              yes
                            ma97_switch2 = od_hd_reuse           yes
                                  ma97_u = 1e-06                 yes
                               ma97_umax = 0.5                   yes
                                max_iter = 1000                  yes
                    max_refinement_steps = 20                    yes
                    min_refinement_steps = 5                     yes
                                 mu_init = 1e-06                 yes
           mu_superlinear_decrease_power = 1.25                  yes
                   nlp_scaling_min_value = 1e-08                 yes
                        option_file_name = Preset_Case:_743_NCP.opt  yes
                             output_file = ./tmp/Preset_Case:_743_NCP.output  yes
                      print_user_options = yes                   yes
        required_infeasibility_reduction = 1                      no
                                     tol = 1e-08                 yes
                   warm_start_bound_frac = 1e-20                 yes
                   warm_start_bound_push = 1e-20                 yes
                   warm_start_init_point = yes                   yes
              warm_start_mult_bound_push = 1e-20                 yes
                warm_start_mult_init_max = 1e+40                 yes
             warm_start_slack_bound_frac = 1e-20                 yes
             warm_start_slack_bound_push = 1e-20                 yes

******************************************************************************
This program contains Ipopt, a library for large-scale nonlinear optimization.
 Ipopt is released as open source code under the Eclipse Public License (EPL).
         For more information visit http://projects.coin-or.org/Ipopt
******************************************************************************

This is Ipopt version 3.12.10, running with linear solver ma97.

Number of nonzeros in equality constraint Jacobian...:   117167
Number of nonzeros in inequality constraint Jacobian.:      213
Number of nonzeros in Lagrangian Hessian.............:    47513

Total number of variables............................:    29977
                     variables with only lower bounds:    11312
                variables with lower and upper bounds:    15135
                     variables with only upper bounds:        0
Total number of equality constraints.................:    29864
Total number of inequality constraints...............:       25
        inequality constraints with only lower bounds:        4
   inequality constraints with lower and upper bounds:        0
        inequality constraints with only upper bounds:       21

iter    objective    inf_pr   inf_du lg(mu)  ||d||  lg(rg) alpha_du alpha_pr  ls
   0 -1.7181713e-01 1.98e-01 2.00e+00  -6.0 0.00e+00    -  0.00e+00 0.00e+00   0
In iteration 0, 6 Slacks too small, adjusting variable bounds
   1 -1.7181713e-01 1.98e-01 1.23e+03  -6.0 1.09e+10    -  1.23e-13 1.00e-16h  1
   2 -1.7182131e-01 1.98e-01 1.22e+03  -6.0 9.41e+02    -  1.00e-02 1.82e-05f  1
   3 -1.7203504e-01 1.97e-01 1.17e+03  -6.0 7.77e+01    -  6.05e-02 8.07e-03f  1
   4 -1.7208899e-01 1.85e-01 1.12e+03  -6.0 9.58e+01    -  3.10e-02 5.88e-02f  1
   5 -1.7226637e-01 1.65e-01 1.37e+03  -6.0 6.15e+01    -  6.71e-02 1.08e-01f  1
   6 -1.7224072e-01 1.52e-01 1.41e+03  -6.0 6.47e+01    -  5.16e-02 7.94e-02f  1
   7 -1.7124783e-01 1.38e-01 2.13e+03  -6.0 7.35e+01    -  2.07e-01 9.19e-02h  2
   8 -1.7095377e-01 1.35e-01 2.13e+03  -6.0 6.21e+01    -  6.52e-02 2.43e-02h  4
   9 -1.7076278e-01 1.32e-01 2.11e+03  -6.0 6.99e+01    -  6.19e-02 1.75e-02h  5
iter    objective    inf_pr   inf_du lg(mu)  ||d||  lg(rg) alpha_du alpha_pr  ls
  10 -1.7073619e-01 1.32e-01 2.10e+03  -6.0 7.25e+01    -  1.08e-01 5.47e-03h  7
  11 -1.7072413e-01 1.31e-01 2.10e+03  -6.0 6.23e+01    -  6.30e-02 1.03e-03h  9
  12 -1.7037671e-01 1.25e-01 2.11e+03  -6.0 6.79e+01    -  8.08e-02 4.56e-02h  4
  13 -1.7008209e-01 1.20e-01 2.11e+03  -6.0 6.46e+01    -  4.69e-02 4.06e-02h  4
  14 -1.6982372e-01 1.16e-01 2.10e+03  -6.0 6.19e+01    -  1.41e-01 3.68e-02h  4
  15 -1.6956562e-01 1.12e-01 2.07e+03  -6.0 5.89e+01    -  1.68e-01 3.74e-02h  4
  16 -1.6932369e-01 1.08e-01 2.04e+03  -6.0 5.62e+01    -  5.31e-02 3.58e-02h  4
  17 -1.6809230e-01 4.24e-01 5.17e+03  -6.0 1.22e+02    -  3.12e-01 1.85e-01w  1
  18 -1.6668704e-01 1.14e+00 4.33e+03  -6.0 6.66e+01    -  1.71e-01 1.87e-01w  1
  19 -1.6643390e-01 1.11e+00 4.17e+03  -6.0 1.56e+01  -2.0 2.00e-05 3.68e-02w  1
iter    objective    inf_pr   inf_du lg(mu)  ||d||  lg(rg) alpha_du alpha_pr  ls
  20 -1.6916976e-01 1.05e-01 2.05e+03  -6.0 2.57e+01  -2.5 3.12e-01 2.31e-02h  3
  21 -1.6906640e-01 1.04e-01 2.02e+03  -6.0 5.62e+01    -  2.38e-01 1.45e-02h  5
  22 -1.6902442e-01 1.03e-01 2.01e+03  -6.0 9.24e+01    -  9.03e-02 5.71e-03h  6
  23 -1.6898374e-01 1.02e-01 2.00e+03  -6.0 9.52e+01    -  2.56e-01 5.39e-03h  6
  24 -1.6897566e-01 1.02e-01 1.99e+03  -6.0 2.93e+02    -  6.35e-02 1.50e-03h  4
  25 -1.6888796e-01 1.00e-01 1.97e+03  -6.0 2.61e+01  -3.0 2.60e-01 1.91e-02h  3
  26 -1.6886421e-01 9.98e-02 1.95e+03  -6.0 5.79e+01  -3.4 1.05e-01 5.33e-03h  6
  27 -1.6855794e-01 9.77e-02 1.93e+03  -6.0 2.59e+01  -3.0 3.08e-01 2.06e-02h  3
  28 -1.6839124e-01 9.86e-02 1.93e+03  -6.0 2.26e+01  -2.6 3.57e-01 3.60e-02h  1
  29 -1.6838548e-01 1.03e-01 1.91e+03  -6.0 3.05e+01  -3.1 3.71e-06 1.85e-02f  3
iter    objective    inf_pr   inf_du lg(mu)  ||d||  lg(rg) alpha_du alpha_pr  ls
  30 -1.6843835e-01 1.06e-01 1.99e+03  -6.0 2.54e+01  -2.6 1.22e-02 3.25e-02h  1
  31 -1.6841318e-01 1.07e-01 1.97e+03  -6.0 3.66e+01  -3.1 3.32e-01 8.06e-03h  6
  32 -1.6828267e-01 1.10e-01 1.99e+03  -6.0 2.40e+01  -2.7 1.28e-01 2.74e-02h  1
  33 -1.6825332e-01 1.11e-01 1.98e+03  -6.0 5.09e+01  -3.2 4.46e-01 7.71e-03h  6
  34 -1.6814185e-01 1.13e-01 1.97e+03  -6.0 2.41e+01  -2.7 1.48e-01 2.06e-02h  5
  35 -1.6810839e-01 1.15e-01 1.95e+03  -6.0 5.90e+01  -3.2 2.57e-01 7.58e-03h  6
  36 -1.6799978e-01 1.17e-01 1.94e+03  -6.0 2.36e+01  -2.8 3.06e-01 1.83e-02h  5
  37 -1.6793884e-01 1.22e-01 1.92e+03  -6.0 9.63e+01  -3.3 4.17e-02 1.08e-02h  4
  38 -1.6781128e-01 1.26e-01 1.90e+03  -6.0 2.64e+01  -2.8 6.92e-01 1.92e-02h  5
  39 -1.6761715e-01 1.27e-01 1.94e+03  -6.0 1.83e+01  -2.4 2.63e-01 2.70e-02h  5
iter    objective    inf_pr   inf_du lg(mu)  ||d||  lg(rg) alpha_du alpha_pr  ls
  40 -1.6754276e-01 1.28e-01 1.93e+03  -6.0 3.19e+01  -2.9 7.32e-02 8.30e-03h  6
  41 -1.6714830e-01 1.30e-01 1.93e+03  -6.0 2.16e+01  -2.5 4.37e-01 2.14e-02h  5
  42 -1.6705813e-01 1.31e-01 1.92e+03  -6.0 3.66e+01  -2.9 1.89e-01 8.29e-03h  6
  43 -1.6131344e-01 1.27e+00 9.54e+03  -6.0 2.46e+01  -2.5 8.45e-01 3.02e-01w  1
  44 -1.5965589e-01 1.33e+00 1.12e+04  -6.0 2.92e+01  -2.1 2.84e-01 8.27e-02w  1
  45 -1.5759966e-01 1.51e+00 1.83e+05  -6.0 2.67e+01  -1.7 4.91e-01 1.11e-01w  1
  46 -1.6669908e-01 1.33e-01 2.26e+03  -6.0 5.41e+01  -2.1 8.45e-01 1.89e-02h  4
  47 -1.6630066e-01 1.36e-01 2.28e+03  -6.0 2.98e+01  -2.6 2.70e-02 1.59e-02h  5
  48 -1.6617700e-01 1.37e-01 2.46e+03  -6.0 1.24e+02  -3.1 3.64e-02 4.47e-03h  4
  49 -1.6574472e-01 1.41e-01 6.73e+03  -6.0 3.14e+01  -2.7 8.09e-01 1.67e-02h  5
iter    objective    inf_pr   inf_du lg(mu)  ||d||  lg(rg) alpha_du alpha_pr  ls
  50 -1.6554812e-01 1.43e-01 7.37e+03  -6.0 4.79e+01  -3.1 7.10e-02 6.76e-03h  5
  51 -1.6524661e-01 1.45e-01 1.75e+04  -6.0 3.07e+01  -2.7 9.50e-01 1.15e-02h  5
  52 -1.6507919e-01 1.47e-01 1.81e+04  -6.0 5.25e+01  -3.2 6.49e-02 5.91e-03h  4
  53 -1.6470635e-01 1.51e-01 2.73e+04  -6.0 3.06e+01  -2.8 7.56e-01 1.42e-02h  4
  54 -1.6451970e-01 1.54e-01 2.78e+04  -6.0 6.16e+01  -3.2 8.49e-02 6.95e-03h  3
  55 -1.6430584e-01 1.56e-01 3.82e+04  -6.0 3.33e+01  -2.8 1.00e+00 8.17e-03h  4
  56 -1.6239389e-01 1.03e+00 3.54e+04  -6.0 7.60e+01  -3.3 1.25e-01 7.13e-02w  1
  57 -1.5626697e-01 4.40e+00 2.59e+04  -6.0 3.96e+01  -2.9 1.82e-01 2.50e-01w  1
  58 -1.5633072e-01 4.63e+00 2.46e+04  -6.0 3.38e+02  -3.3 1.03e-03 4.20e-02w  1
  59 -1.6424609e-01 1.56e-01 3.80e+04  -6.0 6.68e+01  -2.9 1.25e-01 2.23e-03h  5
iter    objective    inf_pr   inf_du lg(mu)  ||d||  lg(rg) alpha_du alpha_pr  ls
  60 -1.6422442e-01 1.56e-01 3.55e+04  -6.0 1.14e+02  -3.4 3.82e-01 8.25e-04h  8
  61 -1.6402821e-01 1.59e-01 3.64e+04  -6.0 4.01e+01  -3.0 1.81e-01 8.21e-03h  7
  62 -1.6376567e-01 1.61e-01 3.97e+04  -6.0 2.30e+01  -2.5 4.22e-01 1.53e-02h  6
  63 -1.6356956e-01 1.63e-01 3.98e+04  -6.0 4.64e+01  -3.0 7.93e-02 7.42e-03h  7
  64 -1.6326139e-01 1.66e-01 4.65e+04  -6.0 2.71e+01  -2.6 6.16e-01 1.40e-02h  6
  65 -1.6309960e-01 1.68e-01 4.64e+04  -6.0 5.21e+01  -3.1 5.80e-02 6.02e-03h  7
  66 -1.6292795e-01 1.69e-01 5.76e+04  -6.0 3.10e+01  -2.6 1.00e+00 6.87e-03h  7
  67 -1.6280165e-01 1.70e-01 5.71e+04  -6.0 5.63e+01  -3.1 5.25e-02 4.79e-03h  7
  68 -1.6258838e-01 1.72e-01 5.79e+04  -6.0 3.43e+01  -2.7 2.29e-01 8.11e-03h  7
  69 -1.5612229e-01 7.23e+00 4.39e+04  -6.0 5.91e+01  -3.2 6.36e-02 2.60e-01w  1
iter    objective    inf_pr   inf_du lg(mu)  ||d||  lg(rg) alpha_du alpha_pr  ls
  70 -1.5594631e-01 7.33e+00 4.46e+04  -6.0 3.71e+02  -3.7 3.27e-06 5.08e-03w  1
  71 -1.5591897e-01 7.32e+00 6.96e+04  -6.0 3.95e+01  -2.3 4.09e-01 1.52e-03w  1
  72 -1.6248735e-01 1.73e-01 5.73e+04  -6.0 4.23e+01  -2.8 6.36e-02 4.07e-03h  6
  73 -1.6236460e-01 1.75e-01 5.49e+04  -6.0 8.33e+01  -3.3 4.53e-01 5.68e-03h  6
  74 -1.6221534e-01 1.75e-01 5.53e+04  -6.0 3.84e+01  -2.9 2.16e-01 6.20e-03h  7
  75 -1.6217210e-01 1.75e-01 5.62e+04  -6.0 2.42e+02  -3.3 6.29e-02 3.80e-03h  5
  76 -1.6203192e-01 1.76e-01 5.74e+04  -6.0 4.04e+01  -2.9 1.00e+00 5.85e-03h  7
  77 -1.6175644e-01 1.78e-01 6.32e+04  -6.0 2.51e+01  -2.5 5.35e-01 1.49e-02h  6
  78 -1.6161720e-01 1.80e-01 6.16e+04  -6.0 4.68e+01  -3.0 8.41e-01 5.45e-03h  7
  79 -1.6132759e-01 1.83e-01 6.84e+04  -6.0 2.81e+01  -2.5 5.66e-01 1.45e-02h  6
iter    objective    inf_pr   inf_du lg(mu)  ||d||  lg(rg) alpha_du alpha_pr  ls
  80 -1.6121941e-01 1.84e-01 6.73e+04  -6.0 5.04e+01  -3.0 1.53e-01 4.42e-03h  7
  81 -1.6106002e-01 1.84e-01 8.07e+04  -6.0 3.22e+01  -2.6 1.00e+00 6.78e-03h  7
  82 -1.5554940e-01 5.01e+00 6.43e+04  -6.0 5.83e+01  -3.1 1.10e-01 2.30e-01w  1
  83 -1.5552164e-01 5.01e+00 9.68e+04  -6.0 3.80e+01  -2.6 8.10e-01 1.45e-03w  1
  84 -1.5494331e-01 5.17e+00 3.77e+04  -6.0 8.97e+01  -3.1 8.72e-01 3.04e-02w  1
  85 -1.6097392e-01 1.85e-01 7.86e+04  -6.0 1.01e+02  -3.6 1.10e-01 3.59e-03h  6
  86 -1.6086307e-01 1.86e-01 6.79e+04  -6.0 7.92e+01  -3.2 5.79e-01 5.21e-03h  6
  87 -1.6074381e-01 1.86e-01 7.03e+04  -6.0 3.58e+01  -2.7 5.03e-01 5.36e-03h  7
  88 -1.6068444e-01 1.86e-01 6.84e+04  -6.0 1.18e+02  -3.2 2.69e-01 3.41e-03h  6
  89 -1.6049888e-01 1.88e-01 7.03e+04  -6.0 3.67e+01  -2.8 1.00e+00 8.41e-03h  6
iter    objective    inf_pr   inf_du lg(mu)  ||d||  lg(rg) alpha_du alpha_pr  ls
  90 -1.6044712e-01 1.89e-01 6.80e+04  -6.0 6.75e+01  -3.3 1.37e-01 2.88e-03h  7
  91 -1.6033339e-01 1.89e-01 7.03e+04  -6.0 4.06e+01  -2.8 1.00e+00 5.09e-03h  7
  92 -1.6031664e-01 1.89e-01 5.75e+04  -6.0 1.54e+02  -3.3 2.67e-01 7.42e-04h  7
  93 -1.6018540e-01 1.91e-01 5.94e+04  -6.0 4.22e+01  -2.9 2.74e-01 6.32e-03h  7
  94 -1.5996486e-01 1.93e-01 7.21e+04  -6.0 2.69e+01  -2.5 4.86e-01 1.30e-02h  6
  95 -1.5317151e-01 7.53e+00 5.04e+04  -6.0 4.87e+01  -2.9 3.53e-01 2.99e-01w  1
  96 -1.5263858e-01 7.17e+00 4.67e+04  -6.0 3.71e+01  -3.4 4.62e-03 7.39e-02w  1
  97 -1.5263742e-01 7.17e+00 2.51e+04  -6.0 6.43e+01  -3.0 8.28e-01 7.99e-05w  1
  98 -1.5985871e-01 1.94e-01 7.08e+04  -6.0 6.40e+01  -3.5 3.53e-01 4.68e-03h  6
  99 -1.5978793e-01 1.94e-01 6.23e+04  -6.0 5.69e+01  -3.0 1.00e+00 3.33e-03h  7
iter    objective    inf_pr   inf_du lg(mu)  ||d||  lg(rg) alpha_du alpha_pr  ls
 100 -1.5958637e-01 1.98e-01 7.25e+04  -6.0 3.24e+01  -2.6 5.02e-01 1.22e-02h  6
 101 -1.5954812e-01 1.98e-01 6.01e+04  -6.0 7.20e+01  -3.1 8.17e-01 1.85e-03h  7
 102 -1.5936783e-01 2.02e-01 7.14e+04  -6.0 3.58e+01  -2.7 4.91e-01 1.06e-02h  6
 103 -1.5933944e-01 2.02e-01 5.87e+04  -6.0 8.16e+01  -3.1 6.86e-01 1.42e-03h  7
 104 -1.5932378e-01 2.02e-01 4.88e+04  -6.0 9.09e+01  -3.6 7.73e-01 1.37e-03h  7
 105 -1.5929523e-01 2.03e-01 4.96e+04  -6.0 8.94e+01  -4.1 2.32e-01 7.35e-03h  6
 106 -1.5798777e-01 1.84e-01 4.46e+04  -6.0 2.22e+02  -4.6 1.33e-01 5.82e-02h  4
 107 -1.5775926e-01 1.87e-01 4.00e+04  -6.0 1.36e+02  -4.1 8.58e-01 1.86e-02h  5
 108 -1.2230595e-01 8.80e+00 4.65e+04  -6.0 3.46e+02  -4.6 1.15e-01 6.92e-01w  1
 109 -1.2230614e-01 8.80e+00 4.43e+04  -6.0 2.69e+01   0.3 3.40e-02 6.30e-05w  1
iter    objective    inf_pr   inf_du lg(mu)  ||d||  lg(rg) alpha_du alpha_pr  ls
 110 -1.2231858e-01 8.76e+00 4.44e+04  -6.0 2.39e+01   0.7 8.58e-04 4.50e-03w  1
 111 -1.5665134e-01 1.75e-01 3.36e+04  -6.0 2.35e+01   1.2 1.15e-01 2.16e-02h  5
 112 -1.5665172e-01 1.75e-01 3.56e+04  -6.0 1.53e+01   0.7 3.19e-02 1.27e-04h  1
 113 -1.5705740e-01 1.71e-01 3.46e+04  -6.0 1.76e+01   0.2 4.22e-02 3.84e-02h  1
 114 -1.5797757e-01 1.74e-01 4.72e+04  -6.0 1.76e+01  -0.3 1.23e-01 7.54e-02h  1
 115 -1.5825280e-01 1.75e-01 4.95e+04  -6.0 1.53e+01  -0.7 5.00e-02 2.87e-02h  1
 116 -1.5791025e-01 1.79e-01 6.45e+04  -6.0 2.85e+01  -1.2 1.14e-01 1.48e-02h  2
 117 -1.5757145e-01 1.81e-01 3.03e+05  -6.0 2.69e+01  -0.8 6.10e-01 1.32e-02h  3
 118 -1.5737613e-01 1.82e-01 3.80e+05  -6.0 4.19e+01  -1.3 1.71e-01 8.57e-03h  5
 119 -1.5717730e-01 1.82e-01 1.45e+06  -6.0 3.24e+01  -0.8 1.00e+00 7.49e-03h  5
iter    objective    inf_pr   inf_du lg(mu)  ||d||  lg(rg) alpha_du alpha_pr  ls
 120 -1.5715452e-01 1.82e-01 1.49e+06  -6.0 3.88e+01  -1.3 1.89e-01 1.07e-03h  8
 121 -1.5715324e-01 1.82e-01 1.32e+06  -6.0 4.87e+01  -1.8 3.98e-01 9.84e-05h 12
 122 -1.5715312e-01 1.82e-01 1.22e+06  -6.0 4.05e+01  -2.3 3.12e-01 3.11e-05h 13
 123 -1.5593133e-01 1.36e+00 1.12e+06  -6.0 6.98e+01  -1.8 8.10e-02 8.10e-02s 19
 124 -1.5580153e-01 1.34e+00 1.10e+06  -6.0 5.57e+01  -2.3 1.65e-02 1.65e-02s 19
 125 -1.5433019e-01 1.62e+00 9.16e+05  -6.0 8.08e+01  -2.8 1.67e-01 1.67e-01s 19
 126 -1.5328823e-01 1.61e+00 9.05e+05  -6.0 1.31e+03  -3.3 1.30e-02 1.30e-02s 19
 127r-1.5328823e-01 1.61e+00 1.00e+03  -0.2 0.00e+00  -3.8 0.00e+00 0.00e+00R  1
 128r-1.5312847e-01 1.94e+00 1.00e+03  -0.2 1.87e+05    -  2.33e-06 3.86e-06f  1
 129r-1.5274757e-01 1.89e+00 1.00e+03  -0.2 2.56e+02   2.0 2.98e-06 1.19e-05f  1
iter    objective    inf_pr   inf_du lg(mu)  ||d||  lg(rg) alpha_du alpha_pr  ls
 130r-1.5245154e-01 1.89e+00 1.35e+03  -0.2 4.61e+01   1.5 6.61e-05 2.14e-05f  1
 131r-1.5011730e-01 1.85e+00 1.22e+03  -0.2 7.44e+01   1.0 6.29e-05 1.35e-04f  1
 132 -1.5008051e-01 1.84e+00 2.82e+03  -6.0 6.35e+01    -  9.11e-04 3.24e-03h  1
 133 -1.5000621e-01 1.83e+00 1.70e+03  -6.0 6.41e+01    -  3.25e-03 6.49e-03h  1
 134 -1.4980447e-01 1.80e+00 1.67e+03  -6.0 6.47e+01    -  1.06e-02 1.75e-02h  1
 135 -1.4972496e-01 1.79e+00 1.66e+03  -6.0 6.70e+01    -  7.73e-02 6.74e-03h  3
 136 -1.4968598e-01 1.78e+00 1.66e+03  -6.0 7.23e+01    -  5.48e-02 3.17e-03h  5
 137 -1.4965132e-01 1.78e+00 1.65e+03  -6.0 7.47e+01    -  2.13e-01 2.78e-03h  6
 138 -1.4964909e-01 1.77e+00 1.65e+03  -6.0 8.09e+01    -  6.38e-02 1.75e-04h 11
 139 -1.4964852e-01 1.77e+00 1.66e+03  -6.0 8.28e+01    -  1.56e-01 4.41e-05h 13
iter    objective    inf_pr   inf_du lg(mu)  ||d||  lg(rg) alpha_du alpha_pr  ls
 140 -1.4720170e-01 1.46e+00 1.35e+03  -6.0 8.82e+01    -  1.05e-01 1.86e-01h  1
 141 -1.4627266e-01 1.37e+00 3.62e+03  -6.0 1.07e+02    -  2.29e-04 6.39e-02h  1
 142 -1.4606009e-01 1.31e+00 5.65e+05  -6.0 2.21e+02    -  2.34e-01 3.79e-02h  1
 143 -1.4417923e-01 1.07e+00 2.29e+06  -6.0 2.99e+02    -  4.05e-02 1.98e-01H  1
 144 -1.4246525e-01 9.29e-01 1.95e+06  -6.0 2.35e+02    -  2.61e-01 1.34e-01h  2
 145 -1.4098142e-01 8.32e-01 1.73e+06  -6.0 1.82e+02    -  3.07e-01 1.08e-01h  3
 146 -1.3834470e-01 6.75e-01 1.36e+06  -6.0 1.72e+02    -  4.17e-01 2.01e-01h  2
 147 -1.3098310e-01 2.87e-01 1.02e+06  -6.0 1.84e+02    -  7.47e-01 6.29e-01H  1
 148 -1.2630372e-01 1.36e-01 6.55e+04  -6.0 8.51e+01    -  9.22e-01 9.40e-01h  1
 149 -1.2633979e-01 1.33e-01 3.59e+06  -6.0 2.96e+01  -3.3 7.30e-03 2.46e-02h  1
iter    objective    inf_pr   inf_du lg(mu)  ||d||  lg(rg) alpha_du alpha_pr  ls
 150 -1.2684218e-01 1.01e-01 2.31e+06  -6.0 8.03e+01    -  5.95e-01 3.48e-01h  2
 151 -1.2786728e-01 1.09e-01 2.01e+06  -6.0 1.39e+02    -  8.23e-01 2.50e-01h  3
 152 -1.2787652e-01 1.09e-01 1.89e+06  -6.0 1.70e+02  -3.8 7.78e-03 5.59e-04h  2
 153 -1.2765243e-01 9.79e-02 2.15e+06  -6.0 5.13e+01  -4.3 1.23e-02 9.25e-02h  1
 154 -1.2567736e-01 3.82e-02 2.40e+06  -6.0 1.44e+01  -4.8 1.38e-02 1.00e+00h  1
 155 -1.2575654e-01 3.78e-02 2.37e+06  -6.0 3.78e+01  -3.4 7.22e-03 1.24e-02h  1
 156 -1.2575180e-01 3.60e-02 2.25e+06  -6.0 1.30e+00  -3.0 6.67e-01 4.89e-02h  1
 157 -1.2581693e-01 7.73e-03 9.70e+04  -6.0 1.61e+00  -3.5 5.88e-01 9.77e-01h  1
 158 -1.2586019e-01 7.03e-03 8.81e+04  -6.0 1.11e+00  -4.0 1.00e+00 9.16e-02h  1
 159 -1.2670415e-01 3.45e-03 1.36e+03  -6.0 1.88e+00  -4.4 1.00e+00 1.00e+00f  1
iter    objective    inf_pr   inf_du lg(mu)  ||d||  lg(rg) alpha_du alpha_pr  ls
 160 -1.2890296e-01 2.25e-02 5.62e+01  -6.0 5.20e+00  -4.9 1.00e+00 1.00e+00h  1
 161 -1.3004355e-01 4.35e-02 1.43e+00  -6.0 1.20e+01  -5.4 1.00e+00 1.00e+00h  1
 162 -1.3165358e-01 6.89e-02 3.09e+00  -6.0 3.20e+01  -5.9 1.00e+00 5.23e-01h  1
 163 -1.3533553e-01 3.37e-01 2.37e+00  -6.0 5.62e+01  -6.3 8.52e-01 1.00e+00h  1
 164 -1.3564821e-01 2.57e-01 4.91e+00  -6.0 9.75e+02  -6.8 3.98e-02 2.00e-02h  2
 165 -1.3938606e-01 9.41e-03 4.47e+00  -6.0 5.80e+01  -6.4 7.24e-01 1.00e+00H  1
 166 -1.4124734e-01 7.96e-02 1.60e+01  -6.0 1.55e+02  -6.9 7.65e-01 2.00e-01h  1
 167 -1.4283207e-01 1.06e-01 2.69e+00  -6.0 5.31e+01  -6.4 1.00e+00 5.78e-01h  1
 168 -1.4532688e-01 6.45e-01 4.52e+00  -6.0 4.96e+02  -6.9 3.32e-01 1.62e-01h  2
 169 -1.4838700e-01 9.25e-01 8.04e+00  -6.0 1.53e+02  -6.5 1.00e+00 4.13e-01h  1
iter    objective    inf_pr   inf_du lg(mu)  ||d||  lg(rg) alpha_du alpha_pr  ls
 170 -1.5074792e-01 6.70e-01 6.33e+00  -6.0 5.86e+01  -6.1 1.00e+00 5.54e-01h  1
 171 -1.5313603e-01 2.76e-01 3.00e+00  -6.0 2.04e+01  -5.6 1.00e+00 1.00e+00h  1
 172 -1.5654793e-01 7.99e-01 7.64e+00  -6.0 1.15e+02  -6.1 1.00e+00 3.39e-01h  2
 173 -1.6133023e-01 2.69e-01 1.47e+01  -6.0 3.02e+01  -5.7 1.00e+00 9.33e-01H  1
 174 -1.6338911e-01 5.07e-01 1.46e+01  -6.0 1.39e+02  -6.2 3.87e-01 9.37e-02h  3
 175 -1.6831040e-01 4.56e-01 1.05e+01  -6.0 3.97e+01  -5.8 1.00e+00 6.97e-01H  1
 176 -1.6808470e-01 1.85e-01 5.57e+00  -6.0 2.62e+01  -6.2 7.54e-01 6.43e-01h  1
 177 -1.7014922e-01 1.05e+00 3.31e+01  -6.0 4.34e+02  -6.7 3.86e-01 1.49e-01h  1
 178 -1.7872296e-01 1.56e+00 1.56e+01  -6.0 2.64e+02  -7.2 5.50e-01 7.83e-01h  1
 179 -1.8443035e-01 4.38e+00 2.47e+01  -6.0 1.61e+03  -7.7 2.42e-01 1.16e-01h  1
iter    objective    inf_pr   inf_du lg(mu)  ||d||  lg(rg) alpha_du alpha_pr  ls
 180 -1.9320713e-01 7.46e+00 1.81e+01  -6.0 3.38e+02  -7.2 6.07e-01 5.74e-01h  1
 181 -1.9467095e-01 6.50e+00 6.11e+01  -6.0 1.85e+02  -6.8 1.00e+00 1.59e-01h  1
 182 -1.9825648e-01 4.28e+00 2.43e+01  -6.0 3.08e+02  -7.3 1.00e+00 3.61e-01h  1
 183 -2.0258474e-01 2.48e+00 1.87e+01  -6.0 2.15e+02  -7.8 1.00e+00 4.46e-01h  1
 184 -2.0998988e-01 1.93e+00 2.31e+01  -6.0 6.41e+02  -8.2 1.00e+00 3.32e-01h  1
 185 -2.1741125e-01 3.55e+00 2.59e+01  -6.0 8.00e+02  -7.8 5.50e-01 4.98e-01h  1
 186r-2.1741125e-01 3.55e+00 9.99e+02   0.4 0.00e+00  -8.3 0.00e+00 3.95e-07R  5
 187r-2.1723623e-01 3.55e+00 9.99e+02   0.4 3.33e+06    -  1.16e-06 1.29e-06f  1
 188 -2.2146571e-01 3.53e+00 1.69e+03  -6.0 2.07e+05    -  8.24e-06 4.70e-03h  1
 189 -2.2323873e-01 3.52e+00 1.70e+03  -6.0 1.48e+05    -  1.82e-02 2.48e-03h  1
iter    objective    inf_pr   inf_du lg(mu)  ||d||  lg(rg) alpha_du alpha_pr  ls
 190 -2.3069940e-01 5.07e+00 1.68e+03  -6.0 1.08e+05    -  9.68e-03 1.46e-02h  1
 191 -2.3237637e-01 5.02e+00 1.66e+03  -6.0 8.03e+04    -  5.12e-02 1.44e-02h  1
 192 -2.3464171e-01 7.29e+00 1.61e+03  -6.0 1.11e+05    -  1.90e-02 2.71e-02h  1
 193 -2.3543506e-01 7.65e+00 1.59e+03  -6.0 6.54e+04    -  5.86e-02 1.30e-02h  1
 194 -2.3649517e-01 7.48e+00 1.56e+03  -6.0 7.58e+04    -  3.53e-02 2.24e-02h  1
 195 -2.3699238e-01 7.37e+00 1.53e+03  -6.0 8.52e+04    -  3.76e-02 1.58e-02h  1
 196 -2.3755357e-01 7.24e+00 1.50e+03  -6.0 9.83e+04    -  4.19e-02 1.86e-02h  1
 197 -2.3896797e-01 3.06e+01 1.44e+03  -6.0 1.16e+05    -  4.59e-02 4.46e-02h  1
 198 -2.3944972e-01 3.00e+01 1.41e+03  -6.0 7.28e+04    -  1.92e-02 1.98e-02h  1
 199 -2.4048344e-01 2.73e+01 1.33e+03  -6.0 6.62e+03    -  6.41e-02 1.14e-01h  1
iter    objective    inf_pr   inf_du lg(mu)  ||d||  lg(rg) alpha_du alpha_pr  ls
 200 -2.4147081e-01 2.53e+01 3.66e+03  -6.0 1.01e+04    -  1.90e-01 7.96e-02h  1
 201 -2.4175670e-01 2.47e+01 5.32e+03  -6.0 2.84e+04    -  5.49e-02 2.07e-02h  1
 202 -2.4216705e-01 2.31e+01 4.93e+03  -6.0 2.73e+03  -8.8 7.69e-02 7.80e-02h  1
 203 -2.4235514e-01 2.22e+01 8.79e+03  -6.0 1.29e+03  -8.3 3.38e-03 3.86e-02h  1
 204 -2.4245100e-01 2.13e+01 5.70e+04  -6.0 4.11e+02  -7.0 8.52e-03 4.00e-02h  1
 205 -2.4259613e-01 1.96e+01 5.23e+04  -6.0 3.87e+02  -7.5 6.74e-02 8.16e-02h  1
 206 -2.4266878e-01 1.91e+01 5.09e+04  -6.0 4.67e+02  -7.1 1.62e-04 2.63e-02h  1
 207 -2.4267294e-01 1.91e+01 5.09e+04  -6.0 1.61e+04  -7.5 1.78e-03 8.01e-04h  1
 208 -2.4275286e-01 1.86e+01 4.96e+04  -6.0 3.02e+02  -7.1 4.85e-06 2.56e-02h  1
 209 -2.4281015e-01 1.79e+01 4.77e+04  -6.0 7.27e+02  -7.6 6.15e-02 3.82e-02h  1
iter    objective    inf_pr   inf_du lg(mu)  ||d||  lg(rg) alpha_du alpha_pr  ls
 210 -2.4289959e-01 1.56e+01 4.16e+04  -6.0 1.09e+03  -8.1 8.96e-04 1.30e-01h  1
 211 -2.4414145e-01 8.72e+00 2.31e+04  -6.0 3.58e+02  -8.5 5.49e-02 4.47e-01h  1
 212 -2.4420406e-01 8.54e+00 2.27e+04  -6.0 5.33e+03  -9.0 3.87e-02 2.07e-02h  1
 213 -2.4477050e-01 8.14e+00 2.16e+04  -6.0 2.65e+03  -9.5 3.88e-03 4.74e-02h  1
 214 -2.4552601e-01 6.83e+00 1.79e+04  -6.0 2.66e+03  -9.1 6.65e-02 1.70e-01h  1
 215 -2.4575194e-01 5.56e+00 1.46e+04  -6.0 5.01e+02  -7.7 1.92e-01 1.86e-01h  1
Error in an AMPL evaluation. Run with "halt_on_ampl_error yes" to see details.
Warning: Cutting back alpha due to evaluation error
 216 -2.4598514e-01 4.69e+00 1.23e+04  -6.0 2.30e+02  -8.2 3.07e-04 1.58e-01h  2
 217 -2.4645141e-01 3.76e+00 9.83e+03  -6.0 5.41e+02  -8.7 1.60e-01 1.99e-01h  1
Error in an AMPL evaluation. Run with "halt_on_ampl_error yes" to see details.
Warning: Cutting back alpha due to evaluation error
 218 -2.4689088e-01 3.41e+00 8.88e+03  -6.0 1.20e+03  -9.2 1.39e-01 9.63e-02h  2
 219 -2.4874056e-01 1.18e+01 8.17e+03  -6.0 9.01e+03  -9.7 1.33e-01 8.19e-02h  1
iter    objective    inf_pr   inf_du lg(mu)  ||d||  lg(rg) alpha_du alpha_pr  ls
 220 -2.5190069e-01 6.15e+01 7.97e+03  -6.0 2.06e+05    -  1.90e-03 7.38e-03h  1
 221 -2.5239434e-01 6.04e+01 7.82e+03  -6.0 2.39e+04    -  1.66e-02 1.90e-02h  1
 222 -2.5289369e-01 5.92e+01 7.67e+03  -6.0 1.28e+04    -  1.43e-02 2.01e-02h  1
 223 -2.5368531e-01 5.65e+01 7.31e+03  -6.0 7.79e+03    -  3.68e-02 4.79e-02h  1
 224 -2.5383238e-01 5.58e+01 7.21e+03  -6.0 1.53e+04    -  2.41e-02 1.40e-02h  1
 225 -2.5435821e-01 5.22e+01 1.26e+04  -6.0 1.13e+04    -  1.24e-03 6.34e-02h  1
 226 -2.5507788e-01 4.66e+01 1.13e+04  -6.0 9.38e+03    -  1.35e-01 1.07e-01h  1
 227 -2.5510130e-01 4.55e+01 1.10e+04  -6.0 4.88e+01  -5.6 2.60e-03 2.42e-02h  1
 228 -2.5510455e-01 4.53e+01 1.10e+04  -6.0 3.25e+01  -5.2 3.30e-02 3.99e-03h  1
 229 -2.5517755e-01 4.14e+01 1.00e+04  -6.0 4.54e+01  -5.7 5.20e-02 8.72e-02h  1
iter    objective    inf_pr   inf_du lg(mu)  ||d||  lg(rg) alpha_du alpha_pr  ls
 230 -2.5519297e-01 4.03e+01 9.74e+03  -6.0 4.13e+01  -5.2 1.46e-01 2.57e-02h  1
 231 -2.5627836e-01 3.23e+01 7.81e+03  -6.0 8.65e+03    -  1.27e-02 1.99e-01h  1
 232 -2.5776059e-01 1.98e+01 4.79e+03  -6.0 9.45e+03    -  1.82e-01 3.87e-01h  1
 233 -2.5792796e-01 1.85e+01 4.48e+03  -6.0 8.87e+03    -  2.18e-01 6.49e-02h  1
 234 -2.5815486e-01 1.77e+01 4.27e+03  -6.0 1.05e+04    -  1.22e-02 4.67e-02h  1
 235 -2.5835717e-01 4.56e+01 3.96e+03  -6.0 2.22e+04    -  2.91e-02 7.29e-02h  1
 236 -2.5838049e-01 4.54e+01 3.94e+03  -6.0 8.51e+03    -  3.32e-02 3.64e-03h  1
 237 -2.5853082e-01 4.23e+01 3.63e+03  -6.0 9.48e+03    -  1.81e-02 7.94e-02h  1
 238 -2.5873561e-01 3.71e+01 3.16e+03  -6.0 7.39e+03    -  3.40e-01 1.28e-01h  1
 239 -2.5897009e-01 2.91e+01 2.48e+03  -6.0 4.84e+03    -  3.50e-01 2.17e-01h  1
iter    objective    inf_pr   inf_du lg(mu)  ||d||  lg(rg) alpha_du alpha_pr  ls
 240 -2.5911341e-01 3.86e+01 2.22e+03  -6.0 5.61e+03    -  7.77e-02 2.58e-01h  1
 241 -2.5912620e-01 3.81e+01 2.18e+03  -6.0 1.02e+04    -  1.13e-02 1.62e-02h  1
 242 -2.5914013e-01 3.39e+01 7.41e+03  -6.0 1.44e+01  -5.7 1.15e-02 1.09e-01h  1
 243 -2.5915222e-01 2.86e+01 1.43e+04  -6.0 1.37e+01  -6.2 2.14e-02 1.57e-01h  1
 244 -2.5914812e-01 3.11e-02 3.10e+03  -6.0 8.78e+00  -6.7 8.48e-03 1.00e+00h  1
 245 -2.5915190e-01 1.96e-02 8.60e+02  -6.0 1.43e+01  -7.1 5.70e-01 8.22e-01h  1
 246 -2.5915953e-01 7.10e-03 3.57e-01  -6.0 2.72e+01  -7.6 1.00e+00 1.00e+00f  1
 247 -2.5917070e-01 3.11e-02 4.01e-01  -6.0 3.26e+02  -8.1 9.73e-02 9.64e-02h  1
 248 -2.5928002e-01 3.50e-01 1.78e+00  -6.0 1.12e+02  -8.6 1.00e+00 1.00e+00f  1
 249 -2.5947393e-01 1.27e+00 6.15e+00  -6.0 1.09e+03  -9.1 1.86e-01 1.71e-01h  1
iter    objective    inf_pr   inf_du lg(mu)  ||d||  lg(rg) alpha_du alpha_pr  ls
 250 -2.5952596e-01 9.96e-01 4.99e+01  -6.0 4.43e+02  -9.5 6.26e-01 5.19e-01h  1
 251 -2.5971699e-01 1.04e+00 1.62e+02  -6.0 7.91e+02 -10.0 2.56e-01 1.71e-01h  1
 252 -2.5977315e-01 1.59e+00 1.98e+02  -6.0 2.84e+03 -10.5 1.47e-01 9.67e-02h  1
 253 -2.5979023e-01 3.86e+00 3.06e+02  -6.0 2.06e+04    -  1.41e-01 2.75e-02h  1
 254 -2.6001749e-01 7.27e+00 3.34e+01  -6.0 1.72e+03    -  2.79e-01 4.29e-01h  1
 255 -2.6002530e-01 7.16e+00 3.02e+02  -6.0 1.40e+04 -11.0 1.62e-01 1.60e-02h  1
 256 -2.6030607e-01 1.01e+01 5.03e+02  -6.0 9.58e+02    -  1.00e+00 7.28e-01h  1
 257 -2.6031778e-01 9.77e+00 7.60e+02  -6.0 1.87e+04    -  1.22e-01 3.14e-02h  1
 258 -2.6052859e-01 3.57e+01 9.88e+02  -6.0 2.18e+03    -  1.00e+00 7.17e-01h  1
 259 -2.6062557e-01 5.63e+01 1.06e+03  -6.0 3.72e+03    -  3.07e-01 4.55e-01h  1
iter    objective    inf_pr   inf_du lg(mu)  ||d||  lg(rg) alpha_du alpha_pr  ls
 260 -2.6070308e-01 5.21e+01 5.52e+02  -6.0 3.97e+03 -10.5 2.02e-01 1.27e-01h  1
 261 -2.6076969e-01 4.45e+01 3.56e+02  -6.0 2.60e+03    -  2.12e-01 2.16e-01h  1
 262 -2.6081093e-01 4.22e+01 2.45e+05  -6.0 4.28e+03    -  3.99e-03 1.03e-01h  1
 263 -2.6082552e-01 3.72e+01 2.13e+05  -6.0 1.52e+03    -  5.03e-02 1.28e-01h  1
 264 -2.6085305e-01 2.37e+01 1.34e+05  -6.0 4.52e+02    -  1.41e-02 3.73e-01h  1
 265 -2.6077894e-01 3.12e+00 1.51e+04  -6.0 2.33e+02 -10.1 1.45e-01 8.85e-01h  1
 266 -2.6078720e-01 1.13e+00 1.10e+03  -6.0 2.99e+02  -9.7 1.00e+00 9.26e-01h  1
 267 -2.6076609e-01 1.78e-01 1.90e+01  -6.0 1.00e+02 -10.2 6.89e-01 1.00e+00h  1
 268 -2.6076660e-01 2.15e-01 1.21e+02  -6.0 3.58e+03 -10.6 4.95e-01 1.32e-02h  4
 269 -2.6075728e-01 2.20e-01 1.08e-01  -6.0 1.38e+02    -  1.00e+00 1.00e+00h  1
iter    objective    inf_pr   inf_du lg(mu)  ||d||  lg(rg) alpha_du alpha_pr  ls
 270 -2.6075910e-01 1.94e-01 1.38e+01  -6.0 2.75e+02 -10.2 1.00e+00 2.50e-01h  3
 271 -2.6075803e-01 3.85e-01 4.49e+01  -6.0 7.08e+02    -  1.00e+00 1.59e-01h  3
 272 -2.6075375e-01 8.11e-01 3.64e-01  -6.0 2.17e+02    -  1.00e+00 1.00e+00h  1
 273 -2.6075450e-01 1.06e+00 1.26e+02  -6.0 9.12e+03 -10.7 1.98e-01 1.34e-02h  2
 274 -2.6074779e-01 6.67e-01 1.15e-01  -6.0 1.99e+02    -  1.00e+00 1.00e+00h  1
 275 -2.6074612e-01 6.38e-01 8.20e+00  -6.0 3.66e+02    -  1.00e+00 2.43e-01h  2
 276 -2.6074346e-01 9.14e-02 4.78e-02  -6.0 7.43e+01    -  1.00e+00 1.00e+00h  1
 277 -2.6074338e-01 1.44e-03 2.87e-04  -6.0 9.35e+00    -  1.00e+00 1.00e+00h  1
 278 -2.6074338e-01 7.49e-07 3.14e-07  -6.0 2.10e-01    -  1.00e+00 1.00e+00h  1
 279 -2.6122811e-01 1.39e+00 8.07e+01  -7.5 2.65e+03    -  5.02e-01 2.19e-01h  1
iter    objective    inf_pr   inf_du lg(mu)  ||d||  lg(rg) alpha_du alpha_pr  ls
 280 -2.6141736e-01 3.76e+00 5.86e+01  -7.5 3.37e+03    -  3.06e-02 1.19e-01h  1
 281 -2.6145130e-01 3.62e+00 9.02e+01  -7.5 4.47e+02  -9.4 2.85e-01 3.92e-02h  1
 282 -2.6189102e-01 1.31e+01 7.00e+01  -7.5 2.55e+03    -  7.61e-04 3.82e-01h  1
 283 -2.6203890e-01 9.41e+00 9.86e+01  -7.5 1.83e+03    -  4.93e-01 2.80e-01h  1
 284 -2.6214246e-01 7.06e+00 1.28e+02  -7.5 1.62e+03    -  6.42e-01 2.52e-01h  1
 285 -2.6227241e-01 2.97e+00 4.84e+01  -7.5 1.98e+02  -9.8 4.54e-01 5.81e-01h  1
 286 -2.6237298e-01 2.21e+00 1.17e+01  -7.5 1.42e+03    -  1.39e-01 6.68e-01h  1
 287 -2.6237509e-01 2.09e+00 1.11e+01  -7.5 3.47e+02 -10.3 7.12e-02 5.08e-02h  1
 288 -2.6240342e-01 8.41e-01 4.46e+00  -7.5 4.00e+02 -10.8 5.69e-01 6.00e-01h  1
 289 -2.6241395e-01 5.45e-01 2.32e+00  -7.5 4.29e+02 -11.3 1.00e+00 6.60e-01h  1
iter    objective    inf_pr   inf_du lg(mu)  ||d||  lg(rg) alpha_du alpha_pr  ls
 290 -2.6241561e-01 4.15e-01 1.53e+00  -7.5 3.18e+02 -11.7 1.00e+00 3.13e-01h  1
 291 -2.6241558e-01 4.29e-01 1.49e+00  -7.5 3.35e+03 -12.2 1.42e-01 2.73e-02h  6
 292 -2.6241557e-01 4.29e-01 1.51e+00  -7.5 3.25e+03 -11.8 3.70e-01 3.51e-03h  9
 293 -2.6241360e-01 7.90e-01 2.64e+00  -7.5 1.81e+02 -11.4 5.43e-01 1.00e+00H  1
 294 -2.6241407e-01 4.07e-01 5.98e-02  -7.5 7.16e+02 -11.9 1.22e-01 1.00e+00H  1
 295 -2.6241408e-01 4.90e-03 1.03e-05  -7.5 1.98e+01 -10.5 1.00e+00 1.00e+00h  1
 296 -2.6241412e-01 3.48e-01 2.11e-01  -7.5 2.70e+03    -  2.35e-01 6.25e-02h  5
 297 -2.6241414e-01 2.38e-02 3.17e-05  -7.5 4.39e+01 -11.0 1.00e+00 1.00e+00h  1
 298 -2.6241419e-01 2.12e-01 3.31e-04  -7.5 1.32e+02 -11.5 1.00e+00 1.00e+00h  1
 299 -2.6241431e-01 8.02e-02 3.53e-03  -7.5 4.10e+02 -12.0 1.00e+00 1.00e+00H  1
iter    objective    inf_pr   inf_du lg(mu)  ||d||  lg(rg) alpha_du alpha_pr  ls
 300 -2.6241498e-01 1.88e-01 8.80e-02  -7.5 1.51e+03 -12.4 9.66e-01 1.00e+00H  1
 301 -2.6241537e-01 1.59e+02 2.85e+00  -7.5 7.88e+03 -12.9 1.73e-02 1.00e+00H  1
 302 -2.6241549e-01 7.27e+01 1.18e+00  -7.5 1.57e+03    -  1.00e+00 5.00e-01h  2
 303 -2.6241564e-01 3.33e+01 4.98e-01  -7.5 1.01e+03    -  1.00e+00 5.00e-01h  2
 304 -2.6241596e-01 7.45e+00 1.92e-02  -7.5 7.66e+02    -  1.00e+00 1.00e+00h  1
 305 -2.6241628e-01 1.12e+01 4.29e-02  -7.5 6.65e+03    -  7.34e-02 8.30e-02h  3
 306 -2.6241631e-01 1.12e+01 1.46e-01  -7.5 1.57e+04    -  2.17e-02 4.06e-03h  6
 307 -2.6241663e-01 1.37e+01 1.01e+00  -7.5 3.80e+03 -12.5 5.41e-01 1.38e-01h  3
 308 -2.6241654e-01 4.70e-01 7.05e-01  -7.5 1.91e+02    -  3.38e-01 1.00e+00h  1
 309 -2.6241659e-01 8.77e-02 1.55e-04  -7.5 7.62e+01 -11.2 1.00e+00 1.00e+00h  1
iter    objective    inf_pr   inf_du lg(mu)  ||d||  lg(rg) alpha_du alpha_pr  ls
 310 -2.6241720e-01 3.72e+00 5.63e-02  -7.5 8.52e+02    -  9.97e-01 1.00e+00H  1
 311 -2.6241727e-01 2.36e-01 1.56e-03  -7.5 1.19e+02    -  1.00e+00 1.00e+00h  1
 312 -2.6241727e-01 1.32e-04 5.37e-06  -7.5 3.14e+00    -  1.00e+00 1.00e+00h  1
 313 -2.6241727e-01 1.09e-08 5.89e-11  -7.5 2.63e-02    -  1.00e+00 1.00e+00h  1
 314 -2.6241977e-01 2.99e+00 3.77e+00  -9.0 1.70e+03    -  5.24e-01 2.58e-01h  1
 315 -2.6242184e-01 6.18e+01 2.02e+00  -9.0 5.71e+03    -  2.68e-01 3.41e-01h  1
 316 -2.6242274e-01 4.38e+01 9.36e-01  -9.0 1.56e+03    -  3.78e-01 4.23e-01h  1
 317 -2.6242315e-01 3.66e+01 5.90e-01  -9.0 1.85e+03    -  2.54e-01 2.81e-01h  1
 318 -2.6242423e-01 1.00e+02 1.39e+01  -9.0 4.56e+03    -  3.28e-02 6.49e-01h  1
 319 -2.6242529e-01 4.83e+01 3.88e+01  -9.0 1.82e+03    -  9.40e-04 1.00e+00h  1
iter    objective    inf_pr   inf_du lg(mu)  ||d||  lg(rg) alpha_du alpha_pr  ls
 320 -2.6242551e-01 9.27e+00 7.58e+00  -9.0 7.77e+02    -  1.15e-01 1.00e+00h  1
 321 -2.6242585e-01 1.79e+01 1.18e+00  -9.0 1.12e+03    -  4.28e-01 1.00e+00h  1
 322 -2.6242597e-01 8.59e+00 2.73e-01  -9.0 6.71e+02    -  7.60e-01 9.19e-01h  1
 323 -2.6242598e-01 8.58e+00 2.32e-01  -9.0 8.06e+03    -  2.03e-01 5.19e-03h  5
 324 -2.6242601e-01 8.55e+00 1.24e-01  -9.0 2.23e+03    -  9.12e-01 7.01e-02h  3
 325 -2.6242610e-01 8.75e+00 4.65e-02  -9.0 1.19e+03    -  9.92e-01 3.57e-01H  1
 326 -2.6242604e-01 1.42e+00 5.27e-02  -9.0 3.11e+02    -  4.77e-01 1.00e+00h  1
 327 -2.6242637e-01 3.60e+01 4.23e-02  -9.0 2.00e+03    -  9.89e-02 7.87e-01h  1
 328 -2.6242632e-01 2.80e+01 3.46e-02  -9.0 1.06e+03    -  1.80e-01 2.50e-01h  3
 329 -2.6242634e-01 2.80e+01 3.29e-02  -9.0 3.27e+04    -  5.04e-02 2.97e-03h  5
iter    objective    inf_pr   inf_du lg(mu)  ||d||  lg(rg) alpha_du alpha_pr  ls
 330 -2.6242638e-01 2.83e+01 4.31e-02  -9.0 1.50e+04    -  1.02e-01 1.29e-02h  4
 331 -2.6242642e-01 4.79e-01 2.86e-02  -9.0 1.48e+02 -11.6 2.62e-01 1.00e+00h  1
 332 -2.6242697e-01 4.50e+01 1.80e-02  -9.0 2.53e+03    -  9.49e-01 1.00e+00H  1
 333 -2.6242695e-01 4.60e-01 4.17e-04  -9.0 1.17e+02 -12.1 1.00e+00 1.00e+00h  1
 334 -2.6242727e-01 7.60e+00 8.08e-02  -9.0 3.02e+03    -  2.19e-02 1.00e+00H  1
 335 -2.6242726e-01 2.84e-02 2.49e-04  -9.0 3.37e+01 -11.7 1.00e+00 1.00e+00h  1
 336 -2.6242725e-01 2.53e-01 9.46e-05  -9.0 1.04e+02 -12.2 1.00e+00 1.00e+00h  1
 337 -2.6242724e-01 2.45e+00 1.14e-03  -9.0 3.25e+02 -12.6 1.00e+00 1.00e+00h  1
Error in an AMPL evaluation. Run with "halt_on_ampl_error yes" to see details.
Warning: Cutting back alpha due to evaluation error
 338 -2.6242724e-01 1.67e+01 5.68e-03  -9.0 2.72e+04    -  3.48e-02 2.91e-02h  2
 339 -2.6242726e-01 1.58e+01 4.26e-02  -9.0 2.36e+03    -  7.97e-01 7.96e-02h  4
iter    objective    inf_pr   inf_du lg(mu)  ||d||  lg(rg) alpha_du alpha_pr  ls
 340 -2.6242727e-01 1.37e+01 4.16e-02  -9.0 1.35e+03    -  1.00e+00 2.50e-01h  3
 341 -2.6242730e-01 9.53e+00 2.19e-03  -9.0 6.62e+02    -  1.00e+00 1.00e+00h  1
 342 -2.6242730e-01 1.41e+00 5.12e-05  -9.0 2.42e+02    -  1.00e+00 1.00e+00h  1
 343 -2.6242730e-01 4.81e-02 9.98e-06  -9.0 4.75e+01    -  1.00e+00 1.00e+00h  1
 344 -2.6242730e-01 3.96e-05 6.51e-09  -9.0 1.37e+00    -  1.00e+00 1.00e+00h  1
 345 -2.6242730e-01 2.83e-10 3.24e-14  -9.0 2.24e-03    -  1.00e+00 1.00e+00h  1

Number of Iterations....: 345

                                   (scaled)                 (unscaled)
Objective...............:  -2.6242729589434677e-01   -2.6242729589434677e-01
Dual infeasibility......:   3.2411611614425184e-14    3.2411611614425184e-14
Constraint violation....:   2.8267135355510009e-10    2.8267135355510009e-10
Complementarity.........:   9.0909092287466943e-10    9.0909092287466943e-10
Overall NLP error.......:   9.0909092287466943e-10    9.0909092287466943e-10


Number of objective function evaluations             = 1145
Number of objective gradient evaluations             = 343
Number of equality constraint evaluations            = 1148
Number of inequality constraint evaluations          = 1146
Number of equality constraint Jacobian evaluations   = 348
Number of inequality constraint Jacobian evaluations = 348
Number of Lagrangian Hessian evaluations             = 345
Total CPU secs in IPOPT (w/o function evaluations)   =    828.897
Total CPU secs in NLP function evaluations           =     17.988

EXIT: Optimal Solution Found.
